p cnf 26 95
13 14 15  0
13 -14 -15  0
-13 -15  0
-13 14 -15  0
-13 -14 -15  0
-14 -15  0
-13 -14  0
-13 -14 15  0
-1 16  0
-1 -17  0
-1 -19  0
-1 -22  0
-1 -21  0
-1 -18  0
1 -16 17 18 19 21 22  0
-2 -16  0
-2 17  0
-2 -19  0
-2 -22  0
-2 -21  0
-2 -18  0
2 16 -17 18 19 21 22  0
-6 -16  0
-6 -17  0
-6 19  0
-6 -22  0
-6 -21  0
-6 -18  0
6 16 17 18 -19 21 22  0
-7 -16  0
-7 -17  0
-7 -19  0
-7 22  0
-7 -21  0
-7 -18  0
7 16 17 18 19 21 -22  0
-8 -16  0
-8 -17  0
-8 -19  0
-8 -22  0
-8 21  0
-8 -18  0
8 16 17 18 19 -21 22  0
-9 -16  0
-9 -17  0
-9 -19  0
-9 -22  0
-9 -21  0
-9 18  0
9 16 17 -18 19 21 22  0
1 2 6 7 8 9  0
-10 19  0
-10 -20  0
-10 -23  0
-10 -25  0
-10 -24  0
-10 -22  0
10 -19 20 22 23 24 25  0
-11 -19  0
-11 20  0
-11 -23  0
-11 -25  0
-11 -24  0
-11 -22  0
11 19 -20 22 23 24 25  0
-12 -19  0
-12 -20  0
-12 23  0
-12 -25  0
-12 -24  0
-12 -22  0
12 19 20 22 -23 24 25  0
-3 -19  0
-3 -20  0
-3 -23  0
-3 25  0
-3 -24  0
-3 -22  0
3 19 20 22 23 24 -25  0
-4 -19  0
-4 -20  0
-4 -23  0
-4 -25  0
-4 24  0
-4 -22  0
4 19 20 22 23 -24 25  0
-5 -19  0
-5 -20  0
-5 -23  0
-5 -25  0
-5 -24  0
-5 22  0
5 19 20 -22 23 24 25  0
3 4 5 10 11 12  0
26  0
